%chk=he2.chk
# hf/3-21g geom=connectivity

Title Card Required

0 1
 He             
 He                 1            B1

   B1             2.32000000

 1 2 1.0
 2

