%chk=lih.chk
# hf/3-21g geom=connectivity

Title Card Required

0 1
 Li             
 H                  1            B1

   B1             1.53000000

 1 2 1.0
 2

