%chk=carbon_scf_stability_calcs_triplet.chk
#P uhf/6-31g(d) geom=connectivity stable

Stability test for a triplet carbon

0 3
 C              

 1

