%chk=carbon_scf_stability_calcs_singlet.chk
#P rhf/6-31g(d) geom=connectivity stable

Stability test for a singlet carbon atom

0 1
 C              

 1

