%chk=reactant_coord.chk
# opt uhf/sto-3g nosymm

H3CO --> H2COH Reactants

0 2
 C                 -0.95933601    0.35567702    0.00525533
 H                 -0.59099930   -0.67302217    0.01282817
 H                 -0.59765705    0.84585570   -0.90295455
 H                 -2.05253695    0.33167572   -0.01256630
 O                 -0.46207736    1.00516951    1.19137618

