%chk=stable_resonance_structure_coord.chk
# opt uhf/sto-3g nosymm

stable resonance structure H3CN=-N

0 2
 N                  0.93339900    0.35391500   -0.21111400
 N                 -0.41573400    0.49078500   -0.20873400
 C                 -1.06702100   -0.88236200   -0.25644700
 H                 -0.77325700   -1.46969100    0.61355400
 H                 -2.14582600   -0.74348600   -0.25354600
 H                 -0.77026800   -1.40936900   -1.16328500

