%chk=stable_resonance_structure.chk
# opt uhf/sto-3g nosymm

stable resonance structure H3CN=-N

0 2
 N                  0.78271411    0.39244769   -0.21005885
 N                 -0.30928435    0.39251080   -0.21189153
 C                 -1.04428435   -0.87977103   -0.25632059
 H                 -0.78726095   -1.47018920    0.59822335
 H                 -2.09626732   -0.68430197   -0.25145388
 H                 -0.78432454   -1.41090423   -1.14807079

