%chk=test.chk
#P uhf/STO-3G 

test

0 1
H	0.0 	0.0	0.0
H	0.0	0.0	1.0

