%chk=transitional_structures.chk
#T UHF/STO-3G Opt=(QST2,path=3) nosymm

reactant 

0 2
 C                 -0.95933601    0.35567702    0.00525533
 H                 -0.59099930   -0.67302217    0.01282817
 H                 -0.59765705    0.84585570   -0.90295455
 H                 -2.05253695    0.33167572   -0.01256630
 O                 -0.46207736    1.00516951    1.19137618

product 

0 2
 O                 -0.14564290    0.38299232    0.68294725
 C                  0.02895744    0.04929042   -0.65948508
 H                  0.68859412    0.09657909    1.13173624
 H                  1.02111123    0.16540870   -1.09473078
 H                 -0.81571451    0.33132556   -1.28287706

