#T RHF/6-31G(d) Opt Test

Ethylene Geometry Optimization 

0 1
C
C 1 CC
H 1 CH 2 HCC
H 1 CH 2 HCC 3 180. 
H 2 CH 1 HCC 3 180.
H 2 CH 1 HCC 4 180.
    Variables:
CC=1.21
CH=1.07
HCC=121.5
