%chk=products_coord.chk
# opt uhf/sto-3g nosymm

H3CO --> H2COH Products

0 2
 O                 -0.14564290    0.38299232    0.68294725
 C                  0.02895744    0.04929042   -0.65948508
 H                  0.68859412    0.09657909    1.13173624
 H                  1.02111123    0.16540870   -1.09473078
 H                 -0.81571451    0.33132556   -1.28287706

