%chk=unstable_resonance_structure.chk
# opt uhf/sto-3g nosymm

Unstable Resonance Structure H3C-N=N

0 2
 N                 -0.04413416    0.12204519    0.01517301
 N                  1.18786410    0.12204619    0.01724187
 C                 -0.77913416   -1.15101215    0.01517301
 H                 -1.83111878   -0.95549138    0.01517314
 H                 -0.52064152   -1.71209578   -0.85847837
 H                 -0.52064195   -1.71209611    0.88882429

