%chk=oxygen_mol.chk
# uhf/6-31g stable test

SCF Stability Calculations 

0 3
 O              
 O                  1            B1

   B1             1.16160000

 1 2 2.0
 2

